33882145
26
65540
4106
2101266
33882145
16704
1048704
320
13107712
33792
67110912
4120
1089536
16448
67150848
33882149
1179648
33882145
524800
1187968
2097168
12583424
12583424
16777216
33882145
67143680
